(declare-fun w0_ack!180 () (_ BitVec 64))
(declare-fun w1_ack!177 () (_ BitVec 64))
(declare-fun w2_ack!178 () (_ BitVec 64))
(declare-fun w3_ack!179 () (_ BitVec 64))
(assert (not (fp.gt ((_ to_fp 11 53) w0_ack!180) ((_ to_fp 11 53) #x0000000000000000))))
(assert (not (fp.gt ((_ to_fp 11 53) w1_ack!177) ((_ to_fp 11 53) #x0000000000000000))))
(assert (not (fp.gt ((_ to_fp 11 53) w2_ack!178) ((_ to_fp 11 53) #x0000000000000000))))
(assert (not (fp.gt ((_ to_fp 11 53) w3_ack!179) ((_ to_fp 11 53) #x0000000000000000))))
(assert (not (fp.gt ((_ to_fp 11 53) w0_ack!180) ((_ to_fp 11 53) #x0000000000000000))))
(assert (fp.gt ((_ to_fp 11 53) w1_ack!177) ((_ to_fp 11 53) #x0000000000000000)))

(check-sat)
(exit)
